SAT
84 -49 -68 86 -122 -63 29 43 123 -105 -80 -2 26 17 88 -119 -8 18 20 -35 -62 99 -93 57 -72 46 52 61 -75 -92 -113 97 -36 42 -87 96 -102 -5 110 -48 81 124 3 -91 -101 40 85 69 98 51 -103 111 -56 -31 -7 -37 -120 12 16 28 -109 21 -30 107 -66 33 -90 -65 -95 4 -11 -118 -79 60 9 -59 -38 14 76 39 58 108 71 94 -74 -53 -117 -34 -64 70 -55 32 -41 -112 -89 -19 77 -114 67 116 45 -104 -25 -13 1 -6 54 23 -78 44 -73 121 22 -15 50 -82 -27 -115 100 -47 -83 -106 10 125 -24 0
